c This Formular is generated by mcnf
c
c    horn? no 
c    forced? no 
c    mixed sat? no 
c    clause length = 3 
c
p cnf 20  91 
 4 12 -8 0
17 15 1 0
8 -17 -13 0
11 -18 13 0
-13 -8 -12 0
-5 -2 4 0
-5 -13 1 0
-2 -16 -20 0
2 10 6 0
18 -20 14 0
5 19 10 0
9 14 -19 0
-17 -10 14 0
-9 1 15 0
-20 -4 -2 0
-2 18 14 0
18 15 -16 0
-1 -12 -7 0
-5 -13 7 0
-19 -2 11 0
14 -12 20 0
%
0

67 14 89 34 51 98 11 40 51 79 15 23 38 6 68 63 78 75 69 61
